param n := 60;
param c := 10000
param : V : p w :=
   0	  92	 351
   1	  46	 258
   2	  69	 391
   3	   2	 359
   4	  74	 259
   5	  86	 382
   6	  61	 376
   7	  42	 308
   8	  81	 316
   9	  21	 445
  10	  53	 275
  11	  38	 280
  12	   5	 426
  13	  27	 276
  14	 100	 298
  15	  42	 468
  16	  56	 259
  17	  77	 273
  18	  36	 453
  19	  98	 258
  20	  20	 289
  21	  46	 443
  22	  47	 253
  23	  51	 304
  24	  20	 380
  25	  94	 261
  26	  92	 359
  27	  93	 377
  28	  68	 304
  29	   4	 319
  30	   2	 483
  31	  90	 254
  32	  65	 263
  33	  81	 451
  34	  48	 261
  35	  54	 288
  36	  24	 373
  37	  52	 263
  38	  90	 364
  39	  74	 417
  40	  52	 276
  41	  53	 307
  42	  55	 363
  43	  40	 294
  44	  49	 343
  45	  88	 442
  46	  30	 254
  47	  73	 304
  48	  31	 412
  49	  35	 256
  50	  94	 332
  51	  57	 369
  52	  29	 262
  53	  26	 369
  54	  10	 429
  55	  92	 252
  56	   8	 319
  57	  52	 397
  58	  74	 266
  59	  30	 337
;

set E :=
   0	   4
   0	   5
   0	   7
   0	   8
   0	  12
   0	  13
   0	  18
   0	  20
   0	  22
   0	  24
   0	  27
   0	  30
   0	  37
   0	  38
   0	  53
   0	  55
   0	  57
   1	   3
   1	   8
   1	  11
   1	  22
   1	  29
   1	  31
   1	  33
   1	  38
   1	  42
   1	  47
   1	  49
   1	  56
   2	  11
   2	  13
   2	  24
   2	  25
   2	  27
   2	  44
   2	  46
   2	  52
   2	  56
   2	  59
   3	   7
   3	  14
   3	  15
   3	  17
   3	  22
   3	  23
   3	  25
   3	  29
   3	  30
   3	  34
   3	  35
   3	  40
   3	  42
   3	  54
   3	  58
   4	   7
   4	  13
   4	  14
   4	  15
   4	  19
   4	  20
   4	  22
   4	  26
   4	  27
   4	  34
   4	  35
   4	  37
   4	  39
   4	  40
   4	  41
   4	  43
   4	  48
   4	  50
   4	  59
   5	  10
   5	  12
   5	  16
   5	  22
   5	  23
   5	  28
   5	  30
   5	  31
   5	  32
   5	  36
   5	  39
   5	  40
   5	  41
   5	  47
   5	  50
   5	  52
   5	  57
   5	  58
   5	  59
   6	   7
   6	   8
   6	  13
   6	  30
   6	  34
   6	  39
   6	  42
   6	  45
   6	  47
   6	  50
   6	  51
   6	  52
   6	  59
   7	   8
   7	  15
   7	  31
   7	  33
   7	  34
   7	  37
   7	  38
   7	  41
   7	  42
   7	  46
   7	  48
   7	  53
   7	  54
   7	  55
   7	  56
   7	  57
   7	  59
   8	  13
   8	  16
   8	  20
   8	  24
   8	  25
   8	  26
   8	  27
   8	  37
   8	  38
   8	  42
   8	  44
   8	  47
   8	  50
   8	  53
   8	  54
   8	  59
   9	  12
   9	  15
   9	  19
   9	  24
   9	  29
   9	  31
   9	  35
   9	  36
   9	  39
   9	  40
   9	  44
   9	  47
   9	  48
   9	  50
   9	  56
  10	  12
  10	  13
  10	  18
  10	  19
  10	  20
  10	  21
  10	  25
  10	  29
  10	  30
  10	  32
  10	  37
  10	  40
  10	  41
  10	  43
  10	  47
  10	  49
  10	  51
  10	  58
  11	  16
  11	  18
  11	  20
  11	  23
  11	  24
  11	  25
  11	  26
  11	  35
  11	  45
  11	  47
  11	  54
  11	  58
  12	  15
  12	  17
  12	  24
  12	  27
  12	  28
  12	  35
  12	  44
  12	  46
  12	  49
  12	  50
  12	  51
  12	  52
  12	  57
  12	  59
  13	  16
  13	  17
  13	  22
  13	  25
  13	  26
  13	  28
  13	  30
  13	  31
  13	  33
  13	  42
  13	  45
  13	  47
  13	  48
  13	  49
  13	  52
  14	  15
  14	  16
  14	  18
  14	  21
  14	  27
  14	  30
  14	  32
  14	  34
  14	  35
  14	  41
  14	  45
  14	  47
  14	  49
  14	  51
  14	  52
  14	  58
  14	  59
  15	  18
  15	  25
  15	  26
  15	  33
  15	  41
  15	  42
  15	  45
  15	  47
  15	  48
  15	  51
  15	  53
  16	  17
  16	  18
  16	  28
  16	  30
  16	  32
  16	  34
  16	  35
  16	  38
  16	  39
  16	  40
  16	  54
  16	  57
  17	  18
  17	  19
  17	  21
  17	  23
  17	  28
  17	  32
  17	  33
  17	  34
  17	  35
  17	  36
  17	  46
  17	  47
  17	  52
  17	  53
  17	  54
  17	  55
  18	  20
  18	  21
  18	  22
  18	  26
  18	  27
  18	  28
  18	  30
  18	  31
  18	  32
  18	  34
  18	  42
  18	  43
  18	  44
  18	  47
  18	  49
  18	  53
  18	  55
  18	  56
  18	  59
  19	  21
  19	  22
  19	  23
  19	  30
  19	  34
  19	  36
  19	  53
  19	  54
  19	  56
  19	  59
  20	  21
  20	  22
  20	  28
  20	  29
  20	  30
  20	  33
  20	  42
  20	  43
  20	  46
  20	  49
  20	  50
  20	  52
  20	  53
  20	  56
  20	  59
  21	  24
  21	  26
  21	  29
  21	  41
  21	  43
  21	  47
  21	  54
  21	  57
  22	  23
  22	  27
  22	  36
  22	  39
  22	  40
  22	  44
  22	  46
  22	  47
  22	  48
  22	  52
  22	  53
  22	  57
  23	  31
  23	  35
  23	  36
  23	  41
  23	  42
  23	  44
  23	  45
  23	  46
  23	  47
  23	  49
  23	  51
  23	  56
  23	  57
  23	  58
  24	  27
  24	  31
  24	  33
  24	  36
  24	  40
  24	  45
  24	  51
  24	  53
  25	  28
  25	  34
  25	  39
  25	  40
  25	  44
  25	  47
  25	  49
  25	  52
  25	  54
  25	  59
  26	  29
  26	  33
  26	  35
  26	  40
  26	  48
  26	  50
  26	  56
  26	  57
  27	  28
  27	  29
  27	  32
  27	  34
  27	  43
  27	  44
  27	  45
  27	  50
  27	  52
  27	  53
  27	  57
  27	  58
  28	  29
  28	  32
  28	  33
  28	  36
  28	  37
  28	  41
  28	  43
  28	  45
  28	  47
  28	  49
  28	  50
  28	  51
  28	  52
  28	  55
  29	  34
  29	  36
  29	  42
  29	  45
  29	  46
  29	  48
  29	  53
  29	  58
  29	  59
  30	  32
  30	  34
  30	  37
  30	  39
  30	  40
  30	  42
  30	  45
  30	  47
  30	  48
  30	  51
  30	  52
  30	  57
  30	  58
  31	  36
  31	  38
  31	  40
  31	  49
  31	  52
  31	  55
  32	  35
  32	  37
  32	  38
  32	  45
  32	  47
  32	  54
  32	  55
  32	  56
  32	  59
  33	  35
  33	  38
  33	  40
  33	  52
  33	  57
  33	  58
  34	  36
  34	  37
  34	  38
  34	  40
  34	  43
  34	  47
  34	  50
  34	  52
  34	  59
  35	  41
  35	  43
  35	  44
  35	  49
  35	  50
  35	  51
  35	  55
  35	  59
  36	  39
  36	  46
  36	  47
  36	  49
  36	  50
  36	  55
  36	  57
  36	  58
  37	  38
  37	  44
  37	  46
  37	  50
  37	  57
  37	  59
  38	  45
  38	  51
  38	  53
  39	  43
  39	  46
  39	  48
  39	  49
  39	  57
  40	  41
  40	  44
  40	  45
  40	  49
  40	  54
  41	  44
  41	  55
  41	  58
  42	  46
  42	  47
  42	  49
  42	  51
  42	  53
  42	  56
  42	  58
  43	  47
  43	  56
  43	  59
  44	  45
  44	  48
  44	  51
  44	  56
  44	  57
  45	  46
  45	  49
  45	  56
  45	  57
  45	  58
  46	  47
  46	  48
  46	  50
  46	  51
  46	  54
  46	  57
  46	  59
  47	  53
  48	  51
  48	  59
  49	  57
  49	  58
  50	  51
  50	  52
  50	  53
  50	  55
  50	  56
  50	  57
  51	  52
  51	  58
  52	  54
  52	  55
  52	  59
  53	  56
  53	  57
  53	  59
  54	  55
  54	  59
  55	  57
  56	  57
  56	  59
  58	  59
;
